
Gurobi 7.5.2 (linux64) logging started Sat Jul  7 16:16:18 2018

Changed value of parameter LogFile to result/ilp/simNo_1-n_100-m_40-s_4-minVAF_0.05-cov_10000-k_1-fn_0.05-fp_0.0001-na_0.15.ILP.gurobiSolverLog
   Prev: gurobi.log  Default: 
Changed value of parameter TimeLimit to 86400.0
   Prev: 1e+100  Min: 0.0  Max: 1e+100  Default: 1e+100
Optimize a model with 639293 rows, 10765 columns and 1940420 nonzeros
Variable types: 0 continuous, 10765 integer (10765 binary)
Coefficient statistics:
  Matrix range     [2e-05, 4e+00]
  Objective range  [7e-03, 9e+00]
  Bounds range     [1e+00, 1e+00]
  RHS range        [2e-01, 2e+00]
Found heuristic solution: objective -19162.27413
Presolve removed 125184 rows and 974 columns (presolve time = 5s) ...
Presolve removed 127287 rows and 974 columns (presolve time = 10s) ...
Presolve removed 127816 rows and 974 columns (presolve time = 19s) ...
Presolve removed 180716 rows and 1503 columns (presolve time = 20s) ...
Presolve removed 180716 rows and 1503 columns (presolve time = 25s) ...
Presolve removed 180716 rows and 1503 columns
Presolve time: 26.67s
Presolved: 458577 rows, 9262 columns, 1380700 nonzeros
Variable types: 0 continuous, 9262 integer (9262 binary)
Presolved: 9262 rows, 467839 columns, 1389962 nonzeros

Presolve removed 9262 rows and 467839 columns

Root simplex log...

Iteration    Objective       Primal Inf.    Dual Inf.      Time
       0    3.9502317e+00   0.000000e+00   8.829800e+04     31s
   17518   -1.8797484e+02   0.000000e+00   1.924650e+04     35s
   19904   -1.8919209e+02   0.000000e+00   0.000000e+00     37s
   19904   -1.8919209e+02   0.000000e+00   0.000000e+00     38s

Root relaxation: objective -1.891921e+02, 19904 iterations, 9.40 seconds
Total elapsed time = 94.47s
Total elapsed time = 138.89s
Total elapsed time = 175.61s

    Nodes    |    Current Node    |     Objective Bounds      |     Work
 Expl Unexpl |  Obj  Depth IntInf | Incumbent    BestBd   Gap | It/Node Time

     0     0 -189.19209    0 1073 -19162.274 -189.19209  99.0%     -  188s
H    0     0                    -282.6661420 -189.19209  33.1%     -  192s
H    0     0                    -264.1214469 -189.19209  28.4%     -  194s
H    0     0                    -252.3436910 -189.19209  25.0%     -  194s
     0     0 -193.60875    0 1012 -252.34369 -193.60875  23.3%     -  216s
H    0     0                    -240.8736138 -193.60875  19.6%     -  227s
H    0     0                    -226.1514189 -193.60875  14.4%     -  229s
     0     0 -198.02541    0  981 -226.15142 -198.02541  12.4%     -  270s
H    0     0                    -220.2625409 -198.02541  10.1%     -  275s
     0     0 -199.90407    0  887 -220.26254 -199.90407  9.24%     -  337s
     0     0 -200.20638    0  881 -220.26254 -200.20638  9.11%     -  352s
     0     0 -200.20638    0  890 -220.26254 -200.20638  9.11%     -  356s
     0     0 -200.26110    0  922 -220.26254 -200.26110  9.08%     -  375s
     0     0 -200.86571    0  935 -220.26254 -200.86571  8.81%     -  397s
     0     0 -200.96985    0  972 -220.26254 -200.96985  8.76%     -  414s
     0     0 -200.96985    0  969 -220.26254 -200.96985  8.76%     -  424s
     0     0 -202.44207    0  853 -220.26254 -202.44207  8.09%     -  507s
     0     0 -202.44207    0  868 -220.26254 -202.44207  8.09%     -  528s
     0     0 -203.17818    0  828 -220.26254 -203.17818  7.76%     -  610s
     0     0 -203.17818    0  855 -220.26254 -203.17818  7.76%     -  623s
     0     0 -205.01845    0 1028 -220.26254 -205.01845  6.92%     -  941s
     0     0 -205.20469    0 1026 -220.26254 -205.20469  6.84%     -  971s
     0     0 -205.20469    0 1033 -220.26254 -205.20469  6.84%     -  981s
     0     0 -207.54663    0 1025 -220.26254 -207.54663  5.77%     - 1198s
     0     0 -207.84021    0  923 -220.26254 -207.84021  5.64%     - 1246s
     0     0 -208.31726    0 1015 -220.26254 -208.31726  5.42%     - 1390s
     0     0 -208.72749    0 1038 -220.26254 -208.72749  5.24%     - 1479s
     0     0 -208.72749    0 1039 -220.26254 -208.72749  5.24%     - 1485s
     0     0 -210.46248    0 1047 -220.26254 -210.46248  4.45%     - 2338s
     0     0 -210.48627    0 1050 -220.26254 -210.48627  4.44%     - 2379s
     0     0 -210.48627    0 1065 -220.26254 -210.48627  4.44%     - 2387s
     0     0 -211.18914    0 1081 -220.26254 -211.18914  4.12%     - 2613s
     0     0 -211.22410    0 1062 -220.26254 -211.22410  4.10%     - 2640s
     0     0 -211.22410    0 1067 -220.26254 -211.22410  4.10%     - 2646s
     0     0 -211.27538    0  476 -220.26254 -211.27538  4.08%     - 3741s
     0     0 -211.27538    0 1069 -220.26254 -211.27538  4.08%     - 4173s
     0     0 -211.27538    0  901 -220.26254 -211.27538  4.08%     - 4184s
     0     0 -213.18706    0  944 -220.26254 -213.18706  3.21%     - 4187s
     0     0 -213.18706    0  930 -220.26254 -213.18706  3.21%     - 4188s
     0     0 -214.06598    0  525 -220.26254 -214.06598  2.81%     - 4218s
     0     0 -214.06598    0  956 -220.26254 -214.06598  2.81%     - 4239s
     0     0 -214.06598    0  654 -220.26254 -214.06598  2.81%     - 4243s
     0     0 -214.06598    0  662 -220.26254 -214.06598  2.81%     - 4243s
     0     0 -214.14290    0  869 -220.26254 -214.14290  2.78%     - 4245s
     0     0 -214.16854    0  843 -220.26254 -214.16854  2.77%     - 4246s
     0     0 -214.16854    0  873 -220.26254 -214.16854  2.77%     - 4246s
     0     0 -214.16854    0  879 -220.26254 -214.16854  2.77%     - 4248s
     0     0 -214.16854    0  875 -220.26254 -214.16854  2.77%     - 4248s
     0     0 -214.16854    0  715 -220.26254 -214.16854  2.77%     - 4264s
     0     0 -214.16854    0  722 -220.26254 -214.16854  2.77%     - 4265s
     0     0 -214.16854    0  725 -220.26254 -214.16854  2.77%     - 4275s
     0     0 -214.16854    0  737 -220.26254 -214.16854  2.77%     - 4276s
     0     0 -214.16854    0  748 -220.26254 -214.16854  2.77%     - 4286s
     0     0 -214.16854    0  748 -220.26254 -214.16854  2.77%     - 4287s
     0     0 -214.16854    0  665 -220.26254 -214.16854  2.77%     - 4297s
     0     0 -214.16854    0  747 -220.26254 -214.16854  2.77%     - 4298s
     0     0 -214.16854    0  727 -220.26254 -214.16854  2.77%     - 4308s
     0     0 -214.16854    0  727 -220.26254 -214.16854  2.77%     - 4345s
     0     2 -214.37366    0  726 -220.26254 -214.37366  2.67%     - 4354s
     1     2     cutoff    1      -220.26254 -215.04746  2.37%  2222 4355s

Cutting planes:
  Gomory: 3
  Implied bound: 11
  Clique: 11
  MIR: 2
  Zero half: 54

Explored 17 nodes (310806 simplex iterations) in 4360.06 seconds
Thread count was 1 (of 80 available processors)

Solution count 8: -220.263 -220.263 -226.151 ... -19162.3

Optimal solution found (tolerance 1.00e-04)
Best objective -2.202625409499e+02, best bound -2.202625409499e+02, gap 0.0000%
